75
1 0 6
3 0 6
3 1 4
4 0 5
4 2 7
5 4 2
6 1 1
6 5 6
7 0 6
7 1 4
7 2 7
7 4 2
8 1 9
8 2 7
8 3 1
8 4 9
8 5 3
8 6 3
9 0 1
9 3 8
9 4 1
9 6 1
9 7 5
9 8 5
10 0 7
10 2 8
10 3 9
10 9 9
11 3 5
11 9 4
11 10 2
12 1 10
12 6 5
12 11 10
13 3 9
13 4 10
13 6 4
13 8 1
13 10 9
13 11 1
14 0 7
14 1 10
14 4 3
14 5 6
14 6 1
14 7 5
14 9 3
14 10 6
14 11 4
14 12 10
15 1 10
15 2 2
15 5 7
15 6 3
15 8 9
15 10 8
15 12 8
15 13 2
16 3 1
16 4 7
16 5 7
16 6 2
16 7 4
16 9 1
16 11 10
16 12 9
16 13 7
16 15 4
17 0 8
17 4 8
17 5 2
17 11 1
17 13 3
17 14 4
17 16 5
18 6 4
18 7 4
18 9 4
18 12 10
18 13 1
18 16 6
18 17 8
19 0 1
19 3 5
19 5 7
19 8 7
19 9 6
19 10 7
19 12 10
19 14 1
19 16 3
19 17 3
20 0 1
20 1 7
20 2 8
20 5 2
20 12 1
20 13 7
20 18 8
21 0 10
21 2 4
21 5 6
21 6 7
21 8 10
21 9 3
21 11 5
21 13 6
21 14 7
21 15 4
21 17 2
21 20 8
22 0 7
22 2 5
22 4 10
22 6 5
22 7 7
22 10 4
22 11 10
22 13 8
22 15 4
22 16 3
22 18 9
23 1 7
23 5 2
23 12 8
23 15 3
23 16 2
23 17 5
23 18 9
23 19 7
23 20 5
23 21 3
24 2 8
24 3 1
24 5 5
24 19 1
24 20 6
25 2 8
25 3 7
25 4 4
25 5 9
25 7 10
25 8 4
25 9 2
25 11 8
25 14 1
25 17 2
25 19 9
25 20 2
25 22 9
25 23 4
26 0 5
26 1 6
26 3 9
26 5 6
26 6 9
26 10 10
26 12 2
26 13 7
26 15 2
26 18 6
26 20 1
26 21 1
26 24 4
27 0 8
27 1 10
27 2 2
27 3 10
27 5 3
27 6 4
27 7 3
27 9 4
27 10 3
27 12 7
27 13 8
27 14 1
27 17 7
27 18 7
27 19 10
27 24 2
27 25 7
28 0 4
28 1 1
28 2 6
28 3 8
28 7 2
28 9 4
28 10 1
28 11 8
28 12 4
28 13 3
28 15 8
28 16 6
28 17 3
28 18 8
28 19 6
28 22 2
28 23 2
28 24 7
28 26 5
28 27 9
29 0 9
29 1 4
29 2 3
29 4 7
29 7 10
29 9 1
29 12 4
29 13 3
29 14 5
29 19 4
29 21 1
29 22 1
29 24 2
29 25 6
29 27 9
30 0 9
30 5 3
30 6 6
30 7 8
30 9 2
30 10 3
30 11 4
30 13 2
30 20 2
30 22 6
30 23 3
30 24 6
30 25 8
30 26 3
30 27 7
30 29 6
31 0 10
31 3 4
31 4 3
31 7 10
31 8 10
31 9 8
31 10 2
31 11 8
31 13 4
31 15 4
31 16 9
31 17 8
31 19 10
31 20 9
31 21 7
31 22 9
31 23 1
31 24 8
31 25 5
31 26 8
31 28 3
31 30 3
32 0 10
32 2 4
32 3 4
32 6 4
32 7 7
32 8 4
32 9 10
32 12 5
32 13 1
32 14 3
32 15 7
32 17 7
32 20 7
32 21 1
32 24 5
32 25 10
32 27 2
32 30 1
33 2 6
33 3 6
33 5 9
33 6 2
33 16 9
33 18 7
33 20 6
33 22 5
33 23 8
33 28 2
33 29 6
33 30 3
33 32 4
34 1 9
34 2 7
34 4 3
34 5 1
34 7 10
34 9 6
34 10 3
34 11 6
34 12 8
34 15 4
34 18 3
34 19 4
34 20 9
34 24 9
34 26 3
34 27 10
34 28 7
34 29 5
34 30 9
34 31 8
35 2 5
35 6 1
35 7 8
35 8 3
35 10 5
35 12 3
35 13 2
35 15 6
35 17 4
35 18 6
35 22 2
35 23 4
35 25 5
35 26 4
35 31 7
35 33 6
36 1 4
36 5 5
36 8 5
36 10 3
36 15 9
36 16 5
36 17 3
36 21 5
36 22 2
36 25 4
36 27 7
36 29 9
36 30 7
36 34 3
37 0 1
37 2 6
37 3 2
37 7 7
37 8 8
37 10 4
37 14 8
37 15 8
37 16 10
37 17 1
37 19 10
37 20 1
37 23 1
37 26 1
37 27 6
37 29 10
37 30 4
37 31 6
37 33 8
37 34 3
37 36 4
38 1 8
38 4 3
38 5 4
38 6 6
38 10 9
38 11 1
38 15 9
38 16 2
38 18 8
38 21 7
38 23 2
38 24 4
38 29 1
38 30 6
38 31 10
38 34 6
38 35 1
38 36 5
39 0 6
39 2 2
39 6 1
39 7 6
39 9 1
39 10 7
39 16 8
39 17 4
39 19 2
39 20 6
39 21 6
39 22 8
39 23 8
39 25 10
39 26 10
39 30 6
39 31 9
39 34 10
40 1 7
40 2 7
40 5 2
40 6 7
40 9 1
40 10 7
40 11 8
40 13 10
40 14 5
40 15 4
40 16 9
40 20 9
40 22 6
40 23 6
40 27 3
40 28 2
40 29 3
40 32 3
40 36 1
40 37 7
40 39 6
41 0 8
41 2 10
41 4 5
41 9 5
41 15 5
41 16 4
41 20 2
41 21 7
41 26 2
41 27 9
41 29 3
41 30 2
41 32 9
41 33 10
41 34 9
41 37 1
41 38 10
42 0 2
42 1 1
42 4 3
42 5 2
42 6 5
42 10 4
42 11 4
42 12 3
42 13 4
42 15 1
42 16 7
42 19 3
42 27 7
42 28 7
42 33 1
42 34 10
42 35 1
42 37 7
42 38 8
42 41 1
43 0 10
43 1 1
43 2 4
43 3 5
43 5 2
43 6 10
43 8 2
43 9 5
43 10 9
43 17 1
43 21 6
43 23 9
43 24 6
43 25 3
43 26 7
43 27 4
43 31 7
43 32 5
43 35 3
43 36 10
43 38 8
43 39 3
43 41 6
43 42 5
44 0 8
44 1 4
44 2 4
44 3 3
44 4 6
44 5 3
44 7 8
44 8 8
44 9 8
44 11 2
44 12 9
44 14 6
44 15 4
44 17 8
44 19 9
44 20 6
44 21 4
44 22 6
44 24 1
44 28 6
44 30 9
44 31 5
44 32 7
44 33 6
44 35 5
44 36 8
44 38 10
44 39 5
44 40 8
44 42 9
44 43 4
45 0 1
45 4 2
45 6 2
45 7 6
45 9 5
45 14 3
45 16 6
45 17 8
45 19 2
45 20 4
45 23 4
45 26 8
45 29 1
45 30 10
45 31 2
45 33 1
45 34 8
45 36 2
45 38 9
45 39 5
45 42 2
45 43 7
46 1 6
46 3 7
46 4 4
46 5 5
46 10 3
46 11 10
46 12 9
46 13 4
46 14 9
46 17 6
46 20 3
46 24 6
46 25 9
46 26 9
46 27 5
46 28 2
46 29 4
46 32 3
46 35 3
46 36 1
46 42 7
46 44 4
46 45 4
47 0 10
47 1 6
47 3 8
47 4 6
47 6 2
47 7 10
47 8 10
47 9 1
47 10 1
47 12 6
47 15 3
47 17 10
47 18 4
47 19 7
47 21 10
47 22 2
47 24 2
47 27 9
47 30 3
47 31 8
47 32 7
47 33 9
47 37 1
47 38 6
47 42 2
47 44 10
47 45 8
47 46 5
48 0 9
48 2 3
48 4 8
48 6 2
48 7 4
48 8 1
48 9 4
48 10 3
48 11 2
48 15 4
48 16 1
48 21 9
48 23 9
48 24 8
48 28 3
48 29 8
48 30 9
48 31 2
48 34 5
48 39 9
48 40 1
48 41 6
48 45 4
48 46 3
48 47 3
49 1 3
49 4 10
49 9 8
49 10 9
49 14 6
49 15 5
49 16 7
49 19 6
49 20 8
49 23 2
49 24 2
49 25 6
49 26 4
49 27 9
49 28 2
49 31 5
49 33 2
49 37 1
49 38 1
49 41 9
49 43 8
49 44 6
49 45 10
49 46 8
49 47 3
49 48 4
50 0 5
50 1 10
50 3 2
50 7 1
50 8 5
50 11 9
50 12 10
50 17 5
50 19 5
50 20 10
50 21 3
50 23 2
50 25 6
50 26 6
50 30 4
50 31 9
50 33 1
50 34 5
50 35 7
50 37 5
50 39 2
50 40 5
50 41 5
50 42 1
50 46 8
50 48 5
50 49 3
51 5 2
51 13 5
51 15 1
51 17 10
51 18 5
51 19 3
51 24 7
51 25 6
51 29 2
51 34 2
51 35 6
51 43 7
51 44 2
51 49 2
52 2 8
52 3 6
52 6 10
52 10 3
52 13 1
52 15 4
52 17 7
52 19 7
52 20 7
52 22 7
52 25 7
52 29 1
52 30 10
52 32 10
52 34 2
52 35 6
52 37 8
52 39 3
52 42 8
52 44 4
52 45 7
52 47 7
52 49 6
52 50 9
52 51 5
53 1 5
53 2 3
53 3 9
53 4 8
53 5 10
53 9 4
53 10 8
53 11 10
53 12 2
53 16 4
53 18 4
53 20 1
53 22 1
53 23 6
53 25 6
53 26 3
53 27 8
53 37 4
53 38 7
53 42 8
53 44 1
53 45 3
53 48 6
53 51 10
53 52 2
54 0 5
54 1 10
54 9 7
54 12 9
54 13 7
54 15 3
54 17 9
54 20 4
54 23 10
54 25 3
54 32 5
54 33 4
54 34 3
54 36 7
54 38 5
54 42 8
54 44 6
54 46 6
54 47 9
54 48 4
54 51 5
54 53 5
55 0 6
55 5 8
55 6 6
55 13 9
55 14 4
55 15 7
55 16 8
55 20 6
55 22 2
55 25 5
55 30 8
55 31 4
55 35 8
55 37 9
55 38 1
55 39 6
55 41 5
55 42 3
55 44 8
55 45 4
55 49 10
55 50 9
55 51 4
55 52 7
55 53 2
55 54 7
56 1 9
56 5 3
56 6 2
56 8 9
56 11 5
56 12 2
56 13 6
56 16 10
56 18 2
56 20 1
56 21 4
56 24 10
56 25 4
56 28 3
56 31 5
56 32 10
56 33 5
56 37 6
56 39 8
56 40 6
56 41 10
56 44 3
56 46 3
56 47 2
56 48 8
56 49 5
56 51 2
56 53 2
56 55 2
57 0 6
57 1 7
57 2 6
57 3 1
57 4 10
57 5 9
57 6 1
57 7 5
57 8 3
57 15 4
57 16 8
57 17 1
57 18 1
57 20 8
57 23 4
57 24 7
57 25 4
57 28 8
57 30 9
57 31 5
57 32 3
57 36 10
57 37 2
57 39 10
57 45 8
57 46 10
57 50 6
57 51 4
57 52 8
57 54 7
58 0 5
58 2 1
58 3 9
58 4 4
58 5 4
58 8 8
58 11 9
58 12 4
58 13 10
58 15 6
58 21 1
58 23 4
58 25 5
58 30 2
58 31 9
58 32 1
58 36 3
58 39 3
58 41 3
58 42 5
58 44 2
58 46 3
58 48 5
58 50 2
58 51 3
58 52 7
58 53 6
58 56 4
58 57 6
59 0 4
59 4 3
59 5 5
59 6 3
59 7 4
59 10 4
59 11 1
59 12 8
59 13 4
59 14 10
59 16 7
59 17 6
59 19 10
59 20 10
59 22 9
59 24 4
59 27 10
59 30 5
59 31 7
59 35 8
59 36 3
59 37 10
59 38 7
59 40 1
59 42 8
59 43 2
59 45 5
59 48 10
59 49 8
59 50 7
59 53 9
59 54 1
59 55 9
59 56 8
59 58 7
60 3 3
60 6 3
60 7 10
60 8 6
60 10 8
60 12 1
60 18 7
60 19 3
60 23 9
60 24 5
60 26 2
60 27 4
60 28 7
60 31 5
60 33 2
60 35 9
60 36 9
60 40 1
60 43 3
60 44 3
60 45 7
60 46 9
60 47 10
60 48 4
60 49 7
60 50 4
60 51 4
60 52 3
60 53 1
60 54 10
60 55 8
60 57 3
60 58 8
60 59 9
61 0 8
61 3 7
61 5 1
61 7 6
61 10 8
61 12 8
61 13 1
61 16 1
61 19 3
61 22 3
61 23 8
61 24 5
61 26 8
61 28 10
61 29 5
61 30 9
61 33 6
61 35 8
61 37 4
61 38 10
61 41 1
61 43 10
61 44 2
61 45 3
61 47 9
61 49 4
61 50 4
61 51 10
61 52 3
61 54 6
61 60 4
62 1 6
62 2 4
62 4 6
62 5 1
62 7 9
62 11 7
62 12 7
62 13 6
62 15 6
62 20 2
62 21 1
62 24 2
62 25 7
62 26 2
62 27 10
62 28 7
62 29 3
62 30 8
62 31 3
62 32 4
62 33 2
62 34 1
62 35 4
62 37 3
62 38 10
62 44 5
62 46 9
62 47 1
62 48 3
62 49 1
62 53 10
62 55 10
62 59 10
62 60 6
63 1 10
63 3 6
63 5 8
63 8 5
63 11 9
63 12 1
63 16 7
63 17 4
63 19 1
63 20 8
63 23 7
63 24 9
63 31 8
63 34 7
63 39 2
63 41 3
63 44 7
63 45 6
63 51 1
63 52 2
63 57 1
63 58 1
63 62 1
64 7 4
64 8 4
64 9 5
64 10 7
64 11 1
64 13 1
64 16 1
64 18 10
64 20 3
64 21 8
64 22 5
64 23 2
64 24 8
64 25 1
64 26 4
64 29 2
64 30 10
64 32 7
64 37 8
64 38 9
64 40 9
64 41 8
64 42 5
64 44 2
64 46 9
64 47 10
64 48 5
64 50 8
64 57 10
64 59 7
65 1 6
65 2 2
65 3 6
65 4 6
65 5 1
65 7 2
65 8 4
65 10 7
65 12 3
65 13 7
65 18 1
65 20 2
65 21 6
65 22 7
65 23 3
65 24 3
65 26 3
65 27 3
65 28 4
65 31 6
65 33 3
65 34 3
65 35 1
65 37 7
65 39 4
65 42 5
65 43 10
65 45 4
65 46 8
65 48 5
65 51 7
65 52 7
65 53 3
65 55 8
65 62 5
65 63 6
66 0 8
66 2 3
66 6 10
66 10 8
66 16 7
66 18 1
66 21 7
66 23 1
66 28 8
66 29 2
66 32 2
66 34 2
66 36 9
66 40 6
66 41 9
66 43 1
66 45 5
66 46 5
66 50 4
66 55 7
66 56 10
66 60 9
66 62 1
66 63 1
66 64 4
67 0 10
67 3 5
67 4 1
67 5 10
67 7 7
67 8 5
67 11 2
67 14 6
67 15 10
67 16 3
67 20 5
67 24 7
67 26 6
67 28 7
67 33 5
67 34 3
67 36 9
67 38 8
67 39 6
67 41 5
67 43 6
67 48 9
67 49 3
67 50 3
67 52 2
67 53 10
67 54 1
67 55 4
67 56 1
67 57 7
67 60 4
67 61 4
67 62 8
67 64 4
67 65 3
67 66 7
68 1 5
68 4 9
68 8 10
68 9 2
68 10 9
68 13 5
68 15 1
68 17 8
68 19 3
68 20 4
68 21 5
68 22 4
68 23 7
68 30 6
68 31 1
68 33 5
68 34 2
68 36 8
68 37 4
68 38 4
68 39 4
68 41 2
68 45 3
68 46 4
68 49 1
68 50 3
68 51 3
68 58 9
68 60 2
68 62 6
68 63 9
68 64 6
68 66 2
69 3 8
69 4 8
69 5 4
69 6 10
69 7 7
69 8 6
69 9 9
69 10 8
69 15 5
69 16 3
69 17 3
69 18 9
69 20 9
69 22 10
69 28 4
69 30 10
69 31 1
69 32 2
69 40 8
69 42 10
69 45 4
69 46 2
69 47 2
69 49 7
69 50 8
69 51 10
69 56 4
69 61 3
69 63 9
70 2 3
70 3 10
70 5 7
70 6 7
70 7 3
70 8 5
70 9 3
70 10 3
70 12 10
70 16 1
70 17 6
70 18 7
70 20 2
70 21 5
70 23 8
70 26 7
70 27 4
70 28 9
70 29 5
70 30 9
70 31 5
70 32 4
70 33 5
70 35 4
70 36 2
70 37 9
70 38 6
70 43 9
70 44 1
70 47 6
70 50 4
70 52 9
70 53 3
70 59 1
70 60 10
70 61 4
70 62 8
70 63 4
70 64 3
70 65 10
70 67 9
70 68 2
71 0 8
71 13 2
71 16 3
71 17 9
71 19 3
71 20 5
71 22 3
71 24 7
71 25 5
71 27 3
71 28 2
71 29 1
71 30 5
71 33 6
71 36 3
71 37 7
71 40 9
71 41 4
71 43 9
71 44 7
71 45 3
71 47 4
71 48 8
71 49 1
71 52 1
71 53 2
71 54 3
71 55 1
71 57 9
71 58 3
71 59 6
71 61 9
71 63 4
71 68 10
71 69 7
72 0 1
72 1 4
72 4 4
72 5 8
72 7 5
72 10 2
72 14 1
72 18 5
72 19 7
72 20 7
72 21 3
72 23 5
72 25 9
72 27 4
72 28 5
72 30 8
72 31 10
72 34 7
72 37 10
72 38 1
72 43 9
72 49 9
72 50 10
72 52 4
72 53 2
72 54 7
72 60 1
72 64 10
72 67 6
72 68 4
72 69 8
73 1 3
73 2 6
73 3 1
73 5 8
73 6 5
73 8 7
73 10 6
73 15 10
73 16 4
73 18 1
73 24 1
73 25 9
73 27 1
73 28 4
73 35 7
73 36 10
73 38 8
73 39 1
73 40 1
73 42 5
73 43 10
73 44 9
73 45 8
73 48 8
73 54 1
73 58 1
73 60 10
73 61 2
73 65 9
73 66 7
73 68 10
73 69 6
73 71 1
73 72 3
74 1 5
74 2 1
74 3 8
74 4 7
74 7 4
74 8 9
74 11 4
74 12 7
74 13 10
74 14 5
74 16 3
74 18 6
74 23 5
74 25 9
74 26 10
74 27 7
74 29 4
74 30 10
74 31 10
74 33 2
74 34 5
74 35 1
74 37 10
74 40 5
74 41 7
74 45 4
74 46 10
74 49 9
74 50 10
74 51 5
74 53 4
74 54 2
74 55 5
74 56 5
74 57 6
74 66 8
74 67 6
74 68 8
74 70 4
74 72 6
74 73 10
